data/medium_5.dzn
num_nodi = 7;
ufficio_postale = 5;
dim_borsa = 38;
max_step = 17;
elenco_lettere = [11, 19, 18, 11, 0, 0, 0];
distanze = [|0, 14, 5, 5, 15, 9, 11
|20, 0, 6, 12, 25, 25, 11
|1, 8, 0, 3, 3, 7, 22
|11, 10, 23, 0, 6, 13, 2
|16, 5, 8, 8, 0, 4, 5
|25, 14, 20, 10, 17, 0, 14
|16, 10, 4, 5, 22, 20, 0
|];
