data/medium_5.lp
node(1..7).

ufficio_postale(5).

dim_borsa(38).

time(1..17).

lettere(1,11).
lettere(2,19).
lettere(3,18).
lettere(4,11).
lettere(5,0).
lettere(6,0).
lettere(7,0).

costo_arco(1, 1, 0).
costo_arco(1, 2, 14).
costo_arco(1, 3, 5).
costo_arco(1, 4, 5).
costo_arco(1, 5, 15).
costo_arco(1, 6, 9).
costo_arco(1, 7, 11).

costo_arco(2, 1, 20).
costo_arco(2, 2, 0).
costo_arco(2, 3, 6).
costo_arco(2, 4, 12).
costo_arco(2, 5, 25).
costo_arco(2, 6, 25).
costo_arco(2, 7, 11).

costo_arco(3, 1, 1).
costo_arco(3, 2, 8).
costo_arco(3, 3, 0).
costo_arco(3, 4, 3).
costo_arco(3, 5, 3).
costo_arco(3, 6, 7).
costo_arco(3, 7, 22).

costo_arco(4, 1, 11).
costo_arco(4, 2, 10).
costo_arco(4, 3, 23).
costo_arco(4, 4, 0).
costo_arco(4, 5, 6).
costo_arco(4, 6, 13).
costo_arco(4, 7, 2).

costo_arco(5, 1, 16).
costo_arco(5, 2, 5).
costo_arco(5, 3, 8).
costo_arco(5, 4, 8).
costo_arco(5, 5, 0).
costo_arco(5, 6, 4).
costo_arco(5, 7, 5).

costo_arco(6, 1, 25).
costo_arco(6, 2, 14).
costo_arco(6, 3, 20).
costo_arco(6, 4, 10).
costo_arco(6, 5, 17).
costo_arco(6, 6, 0).
costo_arco(6, 7, 14).

costo_arco(7, 1, 16).
costo_arco(7, 2, 10).
costo_arco(7, 3, 4).
costo_arco(7, 4, 5).
costo_arco(7, 5, 22).
costo_arco(7, 6, 20).
costo_arco(7, 7, 0).

